c "327069.clq"
p edge 100 1344
e 1 17
e 1 18
e 1 19
e 1 20
e 1 21
e 1 22
e 1 23
e 1 24
e 1 25
e 1 30
e 1 31
e 1 32
e 1 33
e 1 34
e 1 35
e 1 36
e 1 37
e 1 38
e 1 47
e 1 48
e 1 49
e 1 50
e 1 52
e 1 53
e 1 54
e 1 55
e 1 60
e 1 64
e 1 65
e 1 68
e 1 69
e 1 71
e 1 82
e 1 83
e 1 84
e 1 93
e 1 94
e 2 17
e 2 18
e 2 19
e 2 21
e 2 22
e 2 23
e 2 24
e 2 25
e 2 26
e 2 27
e 2 29
e 2 30
e 2 31
e 2 32
e 2 33
e 2 34
e 2 35
e 2 37
e 2 38
e 2 40
e 2 55
e 2 57
e 2 59
e 2 65
e 2 66
e 2 67
e 2 71
e 2 72
e 2 75
e 2 84
e 2 86
e 2 87
e 3 17
e 3 18
e 3 19
e 3 20
e 3 21
e 3 22
e 3 23
e 3 24
e 3 30
e 3 31
e 3 39
e 3 42
e 3 51
e 3 55
e 3 56
e 3 65
e 3 67
e 3 78
e 3 80
e 3 88
e 3 89
e 3 90
e 4 17
e 4 18
e 4 19
e 4 20
e 4 21
e 4 22
e 4 23
e 4 24
e 4 25
e 4 26
e 4 27
e 4 29
e 4 31
e 4 32
e 4 33
e 4 36
e 4 40
e 4 44
e 4 46
e 4 47
e 4 48
e 4 56
e 4 67
e 4 69
e 4 70
e 4 78
e 4 79
e 4 81
e 4 86
e 4 88
e 4 90
e 5 17
e 5 18
e 5 19
e 5 21
e 5 22
e 5 23
e 5 25
e 5 26
e 5 27
e 5 28
e 5 32
e 5 33
e 5 35
e 5 38
e 5 40
e 5 41
e 5 45
e 5 46
e 5 50
e 5 51
e 5 60
e 5 63
e 5 68
e 5 70
e 5 74
e 5 75
e 5 76
e 5 77
e 5 89
e 6 17
e 6 18
e 6 19
e 6 20
e 6 21
e 6 23
e 6 28
e 6 31
e 6 34
e 6 35
e 6 36
e 6 37
e 6 43
e 6 46
e 6 51
e 6 52
e 6 55
e 6 70
e 6 73
e 6 86
e 6 91
e 6 93
e 6 94
e 6 96
e 6 100
e 7 17
e 7 18
e 7 19
e 7 20
e 7 21
e 7 22
e 7 23
e 7 24
e 7 25
e 7 35
e 7 36
e 7 39
e 7 41
e 7 43
e 7 44
e 7 46
e 7 48
e 7 50
e 7 51
e 7 52
e 7 57
e 7 59
e 7 66
e 7 69
e 7 82
e 7 89
e 7 91
e 7 94
e 8 17
e 8 18
e 8 19
e 8 20
e 8 21
e 8 24
e 8 25
e 8 28
e 8 30
e 8 31
e 8 33
e 8 34
e 8 35
e 8 37
e 8 43
e 8 44
e 8 49
e 8 51
e 8 52
e 8 54
e 8 56
e 8 58
e 8 63
e 8 68
e 8 69
e 8 70
e 8 72
e 8 73
e 8 74
e 8 84
e 8 93
e 8 95
e 8 96
e 8 98
e 9 17
e 9 18
e 9 20
e 9 30
e 9 36
e 9 74
e 9 75
e 9 91
e 10 17
e 10 18
e 10 20
e 10 22
e 10 23
e 10 26
e 10 27
e 10 28
e 10 29
e 10 30
e 10 53
e 10 54
e 10 70
e 10 98
e 11 17
e 11 18
e 11 19
e 11 20
e 11 21
e 11 24
e 11 26
e 11 27
e 11 28
e 11 29
e 11 31
e 11 36
e 11 37
e 11 43
e 11 44
e 11 46
e 11 48
e 11 50
e 11 56
e 11 57
e 11 58
e 11 62
e 11 65
e 11 67
e 11 72
e 11 84
e 11 85
e 11 92
e 11 95
e 11 99
e 12 17
e 12 19
e 12 20
e 12 21
e 12 24
e 12 25
e 12 26
e 12 27
e 12 28
e 12 29
e 12 30
e 12 32
e 12 41
e 12 45
e 12 49
e 12 54
e 12 77
e 12 78
e 12 79
e 12 85
e 12 87
e 12 92
e 13 17
e 13 18
e 13 19
e 13 22
e 13 23
e 13 26
e 13 31
e 13 39
e 13 40
e 13 57
e 13 59
e 13 61
e 13 62
e 13 65
e 13 69
e 13 71
e 13 80
e 13 93
e 13 98
e 14 17
e 14 18
e 14 19
e 14 20
e 14 21
e 14 22
e 14 25
e 14 28
e 14 34
e 14 35
e 14 41
e 14 42
e 14 43
e 14 44
e 14 49
e 14 52
e 14 58
e 14 65
e 14 78
e 14 84
e 14 92
e 14 94
e 14 98
e 14 100
e 15 17
e 15 18
e 15 19
e 15 20
e 15 21
e 15 22
e 15 23
e 15 24
e 15 25
e 15 26
e 15 27
e 15 29
e 15 30
e 15 33
e 15 34
e 15 35
e 15 36
e 15 38
e 15 41
e 15 48
e 15 50
e 15 52
e 15 57
e 15 61
e 15 62
e 15 65
e 15 69
e 15 70
e 15 72
e 15 75
e 15 82
e 15 83
e 15 92
e 15 95
e 16 17
e 16 18
e 16 19
e 16 20
e 16 22
e 16 26
e 16 28
e 16 29
e 16 34
e 16 37
e 16 41
e 16 43
e 16 44
e 16 45
e 16 46
e 16 47
e 16 57
e 16 60
e 16 64
e 16 73
e 16 75
e 17 18
e 17 19
e 17 20
e 17 21
e 17 22
e 17 23
e 17 24
e 17 25
e 17 26
e 17 27
e 17 28
e 17 30
e 17 32
e 17 33
e 17 36
e 17 38
e 17 39
e 17 43
e 17 49
e 17 54
e 17 55
e 17 58
e 17 59
e 17 62
e 17 63
e 17 64
e 17 66
e 17 69
e 17 75
e 17 76
e 17 78
e 17 79
e 17 83
e 17 84
e 17 90
e 17 95
e 18 19
e 18 20
e 18 21
e 18 22
e 18 23
e 18 24
e 18 25
e 18 26
e 18 29
e 18 30
e 18 31
e 18 32
e 18 33
e 18 34
e 18 36
e 18 37
e 18 38
e 18 40
e 18 42
e 18 44
e 18 46
e 18 47
e 18 50
e 18 53
e 18 54
e 18 55
e 18 56
e 18 61
e 18 67
e 18 69
e 18 72
e 18 74
e 18 89
e 18 99
e 19 20
e 19 21
e 19 22
e 19 23
e 19 24
e 19 25
e 19 26
e 19 27
e 19 28
e 19 29
e 19 30
e 19 31
e 19 32
e 19 33
e 19 34
e 19 37
e 19 38
e 19 39
e 19 40
e 19 45
e 19 47
e 19 49
e 19 50
e 19 52
e 19 57
e 19 60
e 19 61
e 19 62
e 19 64
e 19 68
e 19 72
e 19 74
e 19 76
e 19 77
e 19 85
e 19 87
e 19 88
e 19 89
e 19 97
e 19 99
e 20 21
e 20 22
e 20 23
e 20 24
e 20 25
e 20 27
e 20 28
e 20 29
e 20 31
e 20 32
e 20 35
e 20 37
e 20 40
e 20 41
e 20 42
e 20 44
e 20 45
e 20 47
e 20 50
e 20 52
e 20 56
e 20 59
e 20 66
e 20 69
e 20 70
e 20 73
e 20 76
e 20 77
e 20 81
e 20 83
e 20 86
e 20 88
e 20 91
e 20 95
e 20 96
e 21 22
e 21 23
e 21 24
e 21 25
e 21 27
e 21 29
e 21 30
e 21 31
e 21 35
e 21 39
e 21 45
e 21 50
e 21 51
e 21 53
e 21 60
e 21 61
e 21 64
e 21 65
e 21 68
e 21 70
e 21 71
e 21 74
e 21 77
e 21 79
e 21 82
e 21 87
e 21 88
e 21 90
e 21 92
e 21 97
e 22 23
e 22 24
e 22 25
e 22 26
e 22 27
e 22 28
e 22 29
e 22 31
e 22 32
e 22 33
e 22 36
e 22 37
e 22 38
e 22 39
e 22 40
e 22 41
e 22 42
e 22 43
e 22 45
e 22 47
e 22 48
e 22 49
e 22 52
e 22 56
e 22 57
e 22 58
e 22 59
e 22 62
e 22 63
e 22 65
e 22 66
e 22 70
e 22 71
e 22 73
e 22 74
e 22 75
e 22 82
e 22 84
e 22 86
e 22 87
e 22 90
e 22 92
e 22 95
e 22 96
e 23 24
e 23 25
e 23 26
e 23 27
e 23 28
e 23 29
e 23 30
e 23 32
e 23 33
e 23 35
e 23 36
e 23 37
e 23 38
e 23 39
e 23 43
e 23 44
e 23 46
e 23 47
e 23 50
e 23 51
e 23 54
e 23 59
e 23 61
e 23 62
e 23 63
e 23 65
e 23 68
e 23 72
e 23 75
e 23 76
e 23 77
e 23 78
e 23 80
e 23 83
e 23 86
e 23 91
e 23 99
e 23 100
e 24 26
e 24 27
e 24 30
e 24 31
e 24 35
e 24 36
e 24 38
e 24 40
e 24 43
e 24 45
e 24 46
e 24 48
e 24 49
e 24 53
e 24 55
e 24 56
e 24 59
e 24 64
e 24 72
e 24 80
e 24 81
e 24 83
e 24 85
e 24 86
e 24 93
e 25 26
e 25 27
e 25 28
e 25 32
e 25 34
e 25 38
e 25 39
e 25 40
e 25 41
e 25 44
e 25 46
e 25 47
e 25 51
e 25 54
e 25 58
e 25 65
e 25 66
e 25 67
e 25 71
e 25 76
e 25 81
e 25 82
e 25 83
e 25 86
e 25 87
e 25 89
e 25 90
e 25 95
e 26 27
e 26 28
e 26 29
e 26 30
e 26 31
e 26 32
e 26 35
e 26 36
e 26 39
e 26 40
e 26 41
e 26 43
e 26 44
e 26 46
e 26 47
e 26 50
e 26 51
e 26 53
e 26 55
e 26 58
e 26 59
e 26 63
e 26 66
e 26 70
e 26 71
e 26 74
e 26 77
e 26 84
e 26 86
e 26 93
e 26 97
e 26 100
e 27 28
e 27 29
e 27 33
e 27 34
e 27 38
e 27 39
e 27 41
e 27 43
e 27 45
e 27 46
e 27 48
e 27 49
e 27 50
e 27 51
e 27 56
e 27 57
e 27 58
e 27 61
e 27 62
e 27 72
e 27 79
e 27 80
e 27 82
e 27 83
e 27 88
e 27 95
e 27 97
e 27 98
e 28 29
e 28 30
e 28 31
e 28 32
e 28 33
e 28 34
e 28 36
e 28 37
e 28 38
e 28 39
e 28 40
e 28 41
e 28 42
e 28 43
e 28 48
e 28 50
e 28 53
e 28 56
e 28 58
e 28 63
e 28 66
e 28 68
e 28 71
e 28 80
e 28 82
e 28 87
e 28 89
e 28 94
e 28 98
e 29 32
e 29 33
e 29 35
e 29 36
e 29 37
e 29 39
e 29 42
e 29 46
e 29 49
e 29 53
e 29 54
e 29 60
e 29 61
e 29 62
e 29 65
e 29 66
e 29 67
e 29 70
e 29 75
e 29 76
e 29 91
e 29 97
e 29 100
e 30 34
e 30 44
e 30 48
e 30 53
e 30 59
e 30 63
e 30 69
e 30 81
e 30 82
e 30 89
e 31 32
e 31 33
e 31 34
e 31 37
e 31 38
e 31 42
e 31 45
e 31 47
e 31 53
e 31 54
e 31 55
e 31 59
e 31 61
e 31 64
e 31 73
e 31 74
e 31 75
e 31 77
e 31 79
e 31 88
e 32 33
e 32 34
e 32 35
e 32 40
e 32 42
e 32 48
e 32 49
e 32 51
e 32 53
e 32 57
e 32 58
e 32 61
e 32 63
e 32 65
e 32 67
e 32 68
e 32 75
e 32 86
e 32 88
e 32 91
e 32 92
e 32 95
e 32 99
e 33 34
e 33 35
e 33 36
e 33 37
e 33 38
e 33 39
e 33 42
e 33 43
e 33 44
e 33 45
e 33 46
e 33 49
e 33 50
e 33 52
e 33 53
e 33 54
e 33 61
e 33 62
e 33 72
e 33 74
e 33 76
e 33 77
e 33 78
e 33 80
e 33 82
e 33 87
e 33 88
e 33 90
e 33 93
e 33 99
e 33 100
e 34 38
e 34 40
e 34 41
e 34 42
e 34 47
e 34 51
e 34 52
e 34 53
e 34 57
e 34 64
e 34 67
e 34 68
e 34 73
e 34 76
e 34 81
e 34 91
e 34 92
e 34 94
e 35 43
e 35 47
e 35 48
e 35 49
e 35 56
e 35 59
e 35 61
e 35 64
e 35 66
e 35 68
e 35 75
e 35 78
e 35 86
e 35 87
e 35 89
e 35 90
e 35 94
e 35 95
e 35 96
e 35 99
e 36 37
e 36 39
e 36 41
e 36 42
e 36 44
e 36 51
e 36 52
e 36 54
e 36 57
e 36 58
e 36 60
e 36 62
e 36 66
e 36 67
e 36 68
e 36 69
e 36 71
e 36 72
e 36 73
e 36 74
e 36 77
e 36 83
e 36 86
e 36 88
e 36 89
e 36 96
e 36 97
e 36 99
e 37 39
e 37 40
e 37 42
e 37 45
e 37 47
e 37 48
e 37 49
e 37 52
e 37 53
e 37 56
e 37 63
e 37 64
e 37 66
e 37 68
e 37 74
e 37 76
e 37 78
e 37 81
e 37 84
e 37 88
e 37 91
e 37 94
e 37 96
e 37 97
e 38 41
e 38 42
e 38 60
e 38 69
e 38 73
e 38 74
e 38 85
e 38 88
e 38 99
e 39 40
e 39 41
e 39 43
e 39 46
e 39 48
e 39 56
e 39 73
e 39 80
e 39 85
e 39 86
e 39 89
e 39 94
e 39 100
e 40 42
e 40 45
e 40 46
e 40 54
e 40 55
e 40 56
e 40 58
e 40 60
e 40 63
e 40 66
e 40 72
e 40 88
e 40 91
e 40 93
e 40 99
e 41 42
e 41 44
e 41 45
e 41 48
e 41 51
e 41 57
e 41 58
e 41 62
e 41 64
e 41 66
e 41 68
e 41 85
e 42 48
e 42 50
e 42 51
e 42 52
e 42 54
e 42 55
e 42 57
e 42 59
e 42 60
e 42 69
e 42 70
e 42 71
e 42 72
e 42 73
e 42 74
e 42 75
e 42 80
e 42 83
e 42 94
e 42 98
e 43 44
e 43 45
e 43 49
e 43 60
e 43 66
e 43 70
e 43 73
e 43 85
e 43 94
e 43 99
e 44 45
e 44 47
e 44 58
e 44 59
e 44 65
e 44 80
e 44 92
e 45 50
e 45 52
e 45 62
e 45 64
e 45 68
e 45 81
e 45 82
e 45 85
e 45 94
e 45 96
e 45 97
e 46 47
e 46 53
e 46 54
e 46 60
e 46 64
e 46 67
e 46 68
e 46 71
e 46 73
e 46 75
e 46 96
e 46 98
e 46 100
e 47 55
e 47 61
e 47 65
e 47 78
e 47 80
e 47 85
e 47 91
e 47 92
e 48 49
e 48 51
e 48 52
e 48 55
e 48 58
e 48 61
e 48 63
e 48 71
e 48 82
e 48 84
e 48 94
e 48 95
e 48 100
e 49 53
e 49 57
e 49 62
e 49 77
e 49 82
e 49 84
e 49 85
e 49 87
e 49 89
e 49 90
e 49 92
e 49 98
e 50 55
e 50 64
e 50 69
e 50 73
e 50 77
e 50 91
e 50 92
e 51 54
e 51 55
e 51 56
e 51 59
e 51 71
e 51 79
e 51 83
e 51 85
e 51 87
e 51 91
e 51 96
e 52 60
e 52 61
e 52 63
e 52 65
e 52 69
e 52 70
e 52 71
e 52 76
e 52 78
e 52 79
e 52 81
e 52 83
e 52 87
e 52 88
e 52 93
e 52 99
e 53 55
e 53 59
e 53 72
e 53 79
e 53 83
e 53 84
e 53 93
e 53 96
e 54 57
e 54 60
e 54 61
e 54 73
e 54 81
e 54 83
e 54 93
e 55 56
e 55 58
e 55 62
e 55 63
e 55 67
e 55 91
e 55 92
e 56 62
e 56 84
e 56 87
e 56 90
e 56 94
e 57 60
e 57 72
e 57 97
e 58 60
e 58 63
e 58 78
e 58 82
e 58 98
e 59 67
e 59 80
e 60 63
e 60 69
e 60 70
e 60 75
e 60 78
e 60 80
e 60 82
e 60 86
e 60 89
e 60 100
e 61 64
e 61 74
e 61 77
e 61 95
e 62 64
e 62 72
e 62 76
e 62 86
e 62 90
e 62 98
e 62 99
e 63 66
e 63 67
e 63 68
e 63 77
e 63 78
e 63 79
e 63 81
e 63 84
e 63 85
e 63 95
e 63 97
e 63 98
e 64 79
e 64 84
e 64 96
e 64 98
e 65 67
e 65 76
e 65 80
e 65 83
e 65 93
e 65 95
e 66 67
e 66 76
e 66 94
e 66 97
e 66 98
e 66 99
e 67 71
e 67 77
e 67 78
e 67 87
e 67 90
e 67 96
e 68 76
e 68 79
e 68 97
e 69 70
e 69 71
e 69 73
e 69 97
e 70 89
e 70 92
e 71 93
e 72 74
e 72 79
e 72 80
e 72 81
e 72 84
e 72 88
e 73 75
e 73 76
e 73 78
e 73 90
e 74 79
e 74 81
e 74 85
e 74 90
e 75 77
e 75 79
e 75 81
e 75 83
e 75 88
e 75 96
e 76 81
e 76 89
e 77 79
e 77 81
e 77 93
e 77 95
e 77 97
e 78 80
e 78 87
e 78 91
e 78 99
e 79 82
e 79 96
e 80 97
e 80 100
e 82 85
e 83 90
e 83 100
e 84 85
e 84 86
e 84 87
e 84 90
e 84 92
e 84 97
e 85 89
e 85 93
e 86 95
e 87 98
e 87 100
e 88 91
e 88 92
e 88 94
e 91 100
e 92 93
e 92 96
e 94 99
e 96 98
e 96 100
e 97 100
